NAME          DCAP_2_4_3_300_SS35
ROWS
 N  OBJ
 L  CON1
 L  CON2
 L  CON3
 L  CON4
 L  CON5
 L  CON6
 L  CON7
 L  CON8
 L  CON9
 L  CON10
 L  CON11
 L  CON12
 E  CON13
 E  CON14
 E  CON15
 E  CON16
 E  CON17
 E  CON18
 E  CON19
 E  CON20
 E  CON21
 E  CON22
 E  CON23
 E  CON24
COLUMNS
    x[1,1]    OBJ       6.180167      CON1      1.000000    
    x[1,1]    CON7      -1.000000     CON8      -1.000000   
    x[1,1]    CON9      -1.000000   
    x[1,2]    OBJ       6.563535      CON2      1.000000    
    x[1,2]    CON8      -1.000000     CON9      -1.000000   
    x[1,3]    OBJ       7.443064      CON3      1.000000    
    x[1,3]    CON9      -1.000000   
    x[2,1]    OBJ       6.732585      CON4      1.000000    
    x[2,1]    CON10     -1.000000     CON11     -1.000000   
    x[2,1]    CON12     -1.000000   
    x[2,2]    OBJ       5.039546      CON5      1.000000    
    x[2,2]    CON11     -1.000000     CON12     -1.000000   
    x[2,3]    OBJ       6.054841      CON6      1.000000    
    x[2,3]    CON12     -1.000000   
    MARKER    'MARKER'                'INTORG'
    u[1,1]    OBJ       48.076654     CON1      -1.000000   
    u[1,2]    OBJ       20.066487     CON2      -1.000000   
    u[1,3]    OBJ       32.230043     CON3      -1.000000   
    u[2,1]    OBJ       49.996186     CON4      -1.000000   
    u[2,2]    OBJ       49.466655     CON5      -1.000000   
    u[2,3]    OBJ       27.484319     CON6      -1.000000   
    y[1,1,1]  OBJ       9.408991      CON7      0.617638    
    y[1,1,1]  CON13     1.000000    
    y[1,1,2]  OBJ       7.343812      CON8      0.747578    
    y[1,1,2]  CON14     1.000000    
    y[1,1,3]  OBJ       6.065749      CON9      1.217077    
    y[1,1,3]  CON15     1.000000    
    y[1,2,1]  OBJ       8.084683      CON7      1.119978    
    y[1,2,1]  CON16     1.000000    
    y[1,2,2]  OBJ       5.838256      CON8      1.442368    
    y[1,2,2]  CON17     1.000000    
    y[1,2,3]  OBJ       5.269191      CON9      1.458401    
    y[1,2,3]  CON18     1.000000    
    y[1,3,1]  OBJ       6.102495      CON7      1.089647    
    y[1,3,1]  CON19     1.000000    
    y[1,3,2]  OBJ       8.076371      CON8      1.291819    
    y[1,3,2]  CON20     1.000000    
    y[1,3,3]  OBJ       9.795989      CON9      1.372755    
    y[1,3,3]  CON21     1.000000    
    y[1,4,1]  OBJ       9.750611      CON7      1.283855    
    y[1,4,1]  CON22     1.000000    
    y[1,4,2]  OBJ       5.107516      CON8      0.858485    
    y[1,4,2]  CON23     1.000000    
    y[1,4,3]  OBJ       7.385386      CON9      0.754288    
    y[1,4,3]  CON24     1.000000    
    y[2,1,1]  OBJ       5.816899      CON10     0.617638    
    y[2,1,1]  CON13     1.000000    
    y[2,1,2]  OBJ       7.621641      CON11     0.747578    
    y[2,1,2]  CON14     1.000000    
    y[2,1,3]  OBJ       7.208869      CON12     1.217077    
    y[2,1,3]  CON15     1.000000    
    y[2,2,1]  OBJ       7.436086      CON10     1.119978    
    y[2,2,1]  CON16     1.000000    
    y[2,2,2]  OBJ       7.128946      CON11     1.442368    
    y[2,2,2]  CON17     1.000000    
    y[2,2,3]  OBJ       8.580084      CON12     1.458401    
    y[2,2,3]  CON18     1.000000    
    y[2,3,1]  OBJ       8.622434      CON10     1.089647    
    y[2,3,1]  CON19     1.000000    
    y[2,3,2]  OBJ       7.792805      CON11     1.291819    
    y[2,3,2]  CON20     1.000000    
    y[2,3,3]  OBJ       9.972424      CON12     1.372755    
    y[2,3,3]  CON21     1.000000    
    y[2,4,1]  OBJ       9.577826      CON10     1.283855    
    y[2,4,1]  CON22     1.000000    
    y[2,4,2]  OBJ       8.913822      CON11     0.858485    
    y[2,4,2]  CON23     1.000000    
    y[2,4,3]  OBJ       9.836265      CON12     0.754288    
    y[2,4,3]  CON24     1.000000    
    z[1,1]    OBJ       998.245360    CON13     1.000000    
    z[1,2]    OBJ       769.835849    CON14     1.000000    
    z[1,3]    OBJ       753.790289    CON15     1.000000    
    z[2,1]    OBJ       581.005912    CON16     1.000000    
    z[2,2]    OBJ       866.612722    CON17     1.000000    
    z[2,3]    OBJ       813.492858    CON18     1.000000    
    z[3,1]    OBJ       588.151202    CON19     1.000000    
    z[3,2]    OBJ       906.792080    CON20     1.000000    
    z[3,3]    OBJ       593.082586    CON21     1.000000    
    z[4,1]    OBJ       799.165243    CON22     1.000000    
    z[4,2]    OBJ       676.297169    CON23     1.000000    
    z[4,3]    OBJ       937.599933    CON24     1.000000    
    MARKER    'MARKER'                 'INTEND'
RHS
    RHS       CON1      -0.000000     CON2      -0.000000   
    RHS       CON3      -0.000000     CON4      -0.000000   
    RHS       CON5      -0.000000     CON6      -0.000000   
    RHS       CON7      -0.000000     CON8      -0.000000   
    RHS       CON9      -0.000000     CON10     -0.000000   
    RHS       CON11     -0.000000     CON12     -0.000000   
    RHS       CON13     1.000000      CON14     1.000000    
    RHS       CON15     1.000000      CON16     1.000000    
    RHS       CON17     1.000000      CON18     1.000000    
    RHS       CON19     1.000000      CON20     1.000000    
    RHS       CON21     1.000000      CON22     1.000000    
    RHS       CON23     1.000000      CON24     1.000000    
BOUNDS
 BV BOUND     u[1,1]  
 BV BOUND     u[1,2]  
 BV BOUND     u[1,3]  
 BV BOUND     u[2,1]  
 BV BOUND     u[2,2]  
 BV BOUND     u[2,3]  
 BV BOUND     y[1,1,1]
 BV BOUND     y[1,1,2]
 BV BOUND     y[1,1,3]
 BV BOUND     y[1,2,1]
 BV BOUND     y[1,2,2]
 BV BOUND     y[1,2,3]
 BV BOUND     y[1,3,1]
 BV BOUND     y[1,3,2]
 BV BOUND     y[1,3,3]
 BV BOUND     y[1,4,1]
 BV BOUND     y[1,4,2]
 BV BOUND     y[1,4,3]
 BV BOUND     y[2,1,1]
 BV BOUND     y[2,1,2]
 BV BOUND     y[2,1,3]
 BV BOUND     y[2,2,1]
 BV BOUND     y[2,2,2]
 BV BOUND     y[2,2,3]
 BV BOUND     y[2,3,1]
 BV BOUND     y[2,3,2]
 BV BOUND     y[2,3,3]
 BV BOUND     y[2,4,1]
 BV BOUND     y[2,4,2]
 BV BOUND     y[2,4,3]
 BV BOUND     z[1,1]  
 BV BOUND     z[1,2]  
 BV BOUND     z[1,3]  
 BV BOUND     z[2,1]  
 BV BOUND     z[2,2]  
 BV BOUND     z[2,3]  
 BV BOUND     z[3,1]  
 BV BOUND     z[3,2]  
 BV BOUND     z[3,3]  
 BV BOUND     z[4,1]  
 BV BOUND     z[4,2]  
 BV BOUND     z[4,3]  
ENDATA
